<instance format="XCSP3" type="CSP">
  <variables>
    <array id="x" size="[23]"> 0..22 </array>
  </variables>
  <constraints>
    <extension>
      <list> x[9] x[13] </list>
      <conflicts> (0,1)(0,4)(0,10)(0,13)(0,20)(1,1) </conflicts>
    </extension>
    <extension>
      <list> x[0] x[14] </list>
      <conflicts> (0,4)(0,9)(0,11)(0,12)(0,14)(0,17) </conflicts>
    </extension>
	<group class="channeling">
		<intension> eq(%0,%1) </intension>
 		<args> x[0] 0 </args>
 		<args> x[1] 0 </args>
 		<args> x[2] 0 </args>
 		<args> x[3] 0 </args>
 		<args> x[4] 0 </args>
 		<args> x[5] 0 </args>
 		<args> x[6] 0 </args>
 		<args> x[7] 0 </args>
 		<args> x[8] 0 </args>
 		<args> x[9] 1 </args>
 		<args> x[10] 0 </args>
 		<args> x[11] 0 </args>
 		<args> x[12] 0 </args>
 		<args> x[13] 1 </args>
 		<args> x[14] 0 </args>
 		<args> x[15] 0 </args>
 		<args> x[16] 0 </args>
 		<args> x[17] 0 </args>
 		<args> x[18] 0 </args>
 		<args> x[19] 0 </args>
 		<args> x[20] 0 </args>
 		<args> x[21] 0 </args>
 		<args> x[22] 0 </args>
	</group>
  </constraints>
</instance>
